20
5
2005005
0
0
72 66 67 62 83 
1
0
67 74 75 66 84 
2
0
71 74 70 58 83 
3
0
73 74 73 68 76 
4
0
65 65 67 58 83 
5
0
70 73 74 61 85 
6
0
64 73 65 60 84 
7
0
70 72 74 68 79 
8
0
72 74 71 62 79 
9
0
68 74 75 64 83 
10
0
67 71 71 60 78 
11
0
69 71 65 60 75 
12
0
65 74 73 63 76 
13
0
71 68 73 65 81 
14
0
68 70 68 68 78 
15
0
72 74 73 68 77 
16
0
72 75 73 67 83 
17
0
65 74 75 60 78 
18
0
62 67 74 67 86 
19
0
67 67 75 61 79 
